NAME : n80w180.005.632.tour
COMMENT : Length = 632
COMMENT : Found by LKH [Keld Helsgaun] Tue May  2 05:52:28 2017
TYPE : TOUR
DIMENSION : 81
TOUR_SECTION
1
17
74
34
46
6
80
73
5
56
49
32
64
72
45
10
51
78
48
25
27
58
22
62
77
63
61
14
4
54
69
66
53
41
57
33
55
75
28
11
70
59
9
29
47
44
15
8
50
35
38
23
76
31
36
19
30
68
2
79
7
16
65
21
40
20
67
3
26
12
13
71
42
39
37
18
60
24
81
43
52
-1
EOF
